p cnf 12 50 
8 -2 -6 0
4 -11 8 0
10 -2 -6 0
-11 10 -12 0
8 -2 9 0
12 1 -4 0
8 -4 -9 0
-3 6 4 0
-8 -5 -12 0
10 11 -5 0
-8 -3 -10 0
-6 -9 -12 0
7 8 -5 0
-1 4 9 0
11 7 2 0
-12 4 -10 0
8 9 -1 0
-3 -8 11 0
9 12 -8 0
3 -9 11 0
12 -8 -3 0
3 12 8 0
2 -6 -7 0
-9 3 -7 0
-11 -1 -2 0
6 -5 4 0
-4 5 -10 0
4 12 -7 0
12 2 4 0
-6 9 12 0
-10 -8 -1 0
-3 -7 -6 0
-8 -5 9 0
11 8 7 0
2 11 6 0
-7 -3 -8 0
-4 9 11 0
8 -2 -11 0
8 1 6 0
5 -12 -9 0
-5 3 7 0
-8 -4 -10 0
-6 10 12 0
-4 5 9 0
8 5 -9 0
-9 5 12 0
4 -11 -3 0
-7 -4 5 0
10 -1 12 0
12 2 5 0
